\ Model Hospitalnetwork
\ LP format - for model browsing. Use MPS format to capture full model detail.
Minimize
  100 y_h1_0 + 200 y_h1_1 + 600 y_h1_2 + 90 y_h2_0 + 100 y_h2_1 + 250 y_h2_2
   + 50 y_h3_0 + 250 y_h3_1 + 300 y_h3_2 + 180 y_h4_0 + 200 y_h4_1
   + 480 y_h4_2 + 200 y_h5_0 + 300 y_h5_1 + 400 y_h5_2 + 50 y_h6_0
   + 250 y_h6_1 + 550 y_h6_2 + 100 y_h7_0 + 150 y_h7_1 + 200 y_h7_2
   - 150 Constant
Subject To
 R0: x_h1_c1 + x_h2_c1 + x_h3_c1 + x_h4_c1 + x_h5_c1 + x_h6_c1 + x_h7_c1
   = 1
 R1: x_h1_c2 + x_h2_c2 + x_h3_c2 + x_h4_c2 + x_h5_c2 + x_h6_c2 + x_h7_c2
   = 1
 R2: x_h1_c3 + x_h2_c3 + x_h3_c3 + x_h4_c3 + x_h5_c3 + x_h6_c3 + x_h7_c3
   = 1
 R3: x_h1_c4 + x_h2_c4 + x_h3_c4 + x_h4_c4 + x_h5_c4 + x_h6_c4 + x_h7_c4
   = 1
 R4: x_h1_c5 + x_h2_c5 + x_h3_c5 + x_h4_c5 + x_h5_c5 + x_h6_c5 + x_h7_c5
   = 1
 R5: x_h1_c6 + x_h2_c6 + x_h3_c6 + x_h4_c6 + x_h5_c6 + x_h6_c6 + x_h7_c6
   = 1
 R6: x_h1_c7 + x_h2_c7 + x_h3_c7 + x_h4_c7 + x_h5_c7 + x_h6_c7 + x_h7_c7
   = 1
 R7: x_h1_c8 + x_h2_c8 + x_h3_c8 + x_h4_c8 + x_h5_c8 + x_h6_c8 + x_h7_c8
   = 1
 R8: x_h1_c9 + x_h2_c9 + x_h3_c9 + x_h4_c9 + x_h5_c9 + x_h6_c9 + x_h7_c9
   = 1
 R9: x_h1_c10 + x_h2_c10 + x_h3_c10 + x_h4_c10 + x_h5_c10 + x_h6_c10
   + x_h7_c10 = 1
 R10: x_h1_c11 + x_h2_c11 + x_h3_c11 + x_h4_c11 + x_h5_c11 + x_h6_c11
   + x_h7_c11 = 1
 R11: x_h1_c1 - y_h1_0 - y_h1_1 - y_h1_2 <= 0
 R12: x_h1_c2 - y_h1_0 - y_h1_1 - y_h1_2 <= 0
 R13: x_h1_c3 - y_h1_0 - y_h1_1 - y_h1_2 <= 0
 R14: x_h1_c4 - y_h1_0 - y_h1_1 - y_h1_2 <= 0
 R15: x_h1_c5 - y_h1_0 - y_h1_1 - y_h1_2 <= 0
 R16: x_h1_c6 - y_h1_0 - y_h1_1 - y_h1_2 <= 0
 R17: x_h1_c7 - y_h1_0 - y_h1_1 - y_h1_2 <= 0
 R18: x_h1_c8 - y_h1_0 - y_h1_1 - y_h1_2 <= 0
 R19: x_h1_c9 - y_h1_0 - y_h1_1 - y_h1_2 <= 0
 R20: x_h1_c10 - y_h1_0 - y_h1_1 - y_h1_2 <= 0
 R21: x_h1_c11 - y_h1_0 - y_h1_1 - y_h1_2 <= 0
 R22: x_h2_c1 - y_h2_0 - y_h2_1 - y_h2_2 <= 0
 R23: x_h2_c2 - y_h2_0 - y_h2_1 - y_h2_2 <= 0
 R24: x_h2_c3 - y_h2_0 - y_h2_1 - y_h2_2 <= 0
 R25: x_h2_c4 - y_h2_0 - y_h2_1 - y_h2_2 <= 0
 R26: x_h2_c5 - y_h2_0 - y_h2_1 - y_h2_2 <= 0
 R27: x_h2_c6 - y_h2_0 - y_h2_1 - y_h2_2 <= 0
 R28: x_h2_c7 - y_h2_0 - y_h2_1 - y_h2_2 <= 0
 R29: x_h2_c8 - y_h2_0 - y_h2_1 - y_h2_2 <= 0
 R30: x_h2_c9 - y_h2_0 - y_h2_1 - y_h2_2 <= 0
 R31: x_h2_c10 - y_h2_0 - y_h2_1 - y_h2_2 <= 0
 R32: x_h2_c11 - y_h2_0 - y_h2_1 - y_h2_2 <= 0
 R33: x_h3_c1 - y_h3_0 - y_h3_1 - y_h3_2 <= 0
 R34: x_h3_c2 - y_h3_0 - y_h3_1 - y_h3_2 <= 0
 R35: x_h3_c3 - y_h3_0 - y_h3_1 - y_h3_2 <= 0
 R36: x_h3_c4 - y_h3_0 - y_h3_1 - y_h3_2 <= 0
 R37: x_h3_c5 - y_h3_0 - y_h3_1 - y_h3_2 <= 0
 R38: x_h3_c6 - y_h3_0 - y_h3_1 - y_h3_2 <= 0
 R39: x_h3_c7 - y_h3_0 - y_h3_1 - y_h3_2 <= 0
 R40: x_h3_c8 - y_h3_0 - y_h3_1 - y_h3_2 <= 0
 R41: x_h3_c9 - y_h3_0 - y_h3_1 - y_h3_2 <= 0
 R42: x_h3_c10 - y_h3_0 - y_h3_1 - y_h3_2 <= 0
 R43: x_h3_c11 - y_h3_0 - y_h3_1 - y_h3_2 <= 0
 R44: x_h4_c1 - y_h4_0 - y_h4_1 - y_h4_2 <= 0
 R45: x_h4_c2 - y_h4_0 - y_h4_1 - y_h4_2 <= 0
 R46: x_h4_c3 - y_h4_0 - y_h4_1 - y_h4_2 <= 0
 R47: x_h4_c4 - y_h4_0 - y_h4_1 - y_h4_2 <= 0
 R48: x_h4_c5 - y_h4_0 - y_h4_1 - y_h4_2 <= 0
 R49: x_h4_c6 - y_h4_0 - y_h4_1 - y_h4_2 <= 0
 R50: x_h4_c7 - y_h4_0 - y_h4_1 - y_h4_2 <= 0
 R51: x_h4_c8 - y_h4_0 - y_h4_1 - y_h4_2 <= 0
 R52: x_h4_c9 - y_h4_0 - y_h4_1 - y_h4_2 <= 0
 R53: x_h4_c10 - y_h4_0 - y_h4_1 - y_h4_2 <= 0
 R54: x_h4_c11 - y_h4_0 - y_h4_1 - y_h4_2 <= 0
 R55: x_h5_c1 - y_h5_0 - y_h5_1 - y_h5_2 <= 0
 R56: x_h5_c2 - y_h5_0 - y_h5_1 - y_h5_2 <= 0
 R57: x_h5_c3 - y_h5_0 - y_h5_1 - y_h5_2 <= 0
 R58: x_h5_c4 - y_h5_0 - y_h5_1 - y_h5_2 <= 0
 R59: x_h5_c5 - y_h5_0 - y_h5_1 - y_h5_2 <= 0
 R60: x_h5_c6 - y_h5_0 - y_h5_1 - y_h5_2 <= 0
 R61: x_h5_c7 - y_h5_0 - y_h5_1 - y_h5_2 <= 0
 R62: x_h5_c8 - y_h5_0 - y_h5_1 - y_h5_2 <= 0
 R63: x_h5_c9 - y_h5_0 - y_h5_1 - y_h5_2 <= 0
 R64: x_h5_c10 - y_h5_0 - y_h5_1 - y_h5_2 <= 0
 R65: x_h5_c11 - y_h5_0 - y_h5_1 - y_h5_2 <= 0
 R66: x_h6_c1 - y_h6_0 - y_h6_1 - y_h6_2 <= 0
 R67: x_h6_c2 - y_h6_0 - y_h6_1 - y_h6_2 <= 0
 R68: x_h6_c3 - y_h6_0 - y_h6_1 - y_h6_2 <= 0
 R69: x_h6_c4 - y_h6_0 - y_h6_1 - y_h6_2 <= 0
 R70: x_h6_c5 - y_h6_0 - y_h6_1 - y_h6_2 <= 0
 R71: x_h6_c6 - y_h6_0 - y_h6_1 - y_h6_2 <= 0
 R72: x_h6_c7 - y_h6_0 - y_h6_1 - y_h6_2 <= 0
 R73: x_h6_c8 - y_h6_0 - y_h6_1 - y_h6_2 <= 0
 R74: x_h6_c9 - y_h6_0 - y_h6_1 - y_h6_2 <= 0
 R75: x_h6_c10 - y_h6_0 - y_h6_1 - y_h6_2 <= 0
 R76: x_h6_c11 - y_h6_0 - y_h6_1 - y_h6_2 <= 0
 R77: x_h7_c1 - y_h7_0 - y_h7_1 - y_h7_2 <= 0
 R78: x_h7_c2 - y_h7_0 - y_h7_1 - y_h7_2 <= 0
 R79: x_h7_c3 - y_h7_0 - y_h7_1 - y_h7_2 <= 0
 R80: x_h7_c4 - y_h7_0 - y_h7_1 - y_h7_2 <= 0
 R81: x_h7_c5 - y_h7_0 - y_h7_1 - y_h7_2 <= 0
 R82: x_h7_c6 - y_h7_0 - y_h7_1 - y_h7_2 <= 0
 R83: x_h7_c7 - y_h7_0 - y_h7_1 - y_h7_2 <= 0
 R84: x_h7_c8 - y_h7_0 - y_h7_1 - y_h7_2 <= 0
 R85: x_h7_c9 - y_h7_0 - y_h7_1 - y_h7_2 <= 0
 R86: x_h7_c10 - y_h7_0 - y_h7_1 - y_h7_2 <= 0
 R87: x_h7_c11 - y_h7_0 - y_h7_1 - y_h7_2 <= 0
 R88: y_h1_0 + y_h1_1 + y_h1_2 <= 1
 R89: y_h2_0 + y_h2_1 + y_h2_2 <= 1
 R90: y_h3_0 + y_h3_1 + y_h3_2 <= 1
 R91: y_h4_0 + y_h4_1 + y_h4_2 <= 1
 R92: y_h5_0 + y_h5_1 + y_h5_2 <= 1
 R93: y_h6_0 + y_h6_1 + y_h6_2 <= 1
 R94: y_h7_0 + y_h7_1 + y_h7_2 <= 1
 qc0: [ 20.6155281280883 x_h1_c1 * y_h1_0 ] <= 20
 qc1: [ 20.6155281280883 x_h1_c1 * y_h1_1 ] <= 20
 qc2: [ 20.6155281280883 x_h1_c1 * y_h1_2 ] <= 30
 qc3: [ 25.49509756796392 x_h1_c2 * y_h1_0 ] <= 20
 qc4: [ 25.49509756796392 x_h1_c2 * y_h1_1 ] <= 20
 qc5: [ 25.49509756796392 x_h1_c2 * y_h1_2 ] <= 30
 qc6: [ 15 x_h1_c3 * y_h1_0 ] <= 20
 qc7: [ 15 x_h1_c3 * y_h1_1 ] <= 20
 qc8: [ 15 x_h1_c3 * y_h1_2 ] <= 30
 qc9: [ 56.5685424949238 x_h1_c4 * y_h1_0 ] <= 20
 qc10: [ 56.5685424949238 x_h1_c4 * y_h1_1 ] <= 20
 qc11: [ 56.5685424949238 x_h1_c4 * y_h1_2 ] <= 30
 qc12: [ 15.8113883008419 x_h1_c5 * y_h1_0 ] <= 20
 qc13: [ 15.8113883008419 x_h1_c5 * y_h1_1 ] <= 20
 qc14: [ 15.8113883008419 x_h1_c5 * y_h1_2 ] <= 30
 qc15: [ 41.23105625617661 x_h1_c6 * y_h1_0 ] <= 20
 qc16: [ 41.23105625617661 x_h1_c6 * y_h1_1 ] <= 20
 qc17: [ 41.23105625617661 x_h1_c6 * y_h1_2 ] <= 30
 qc18: [ 36.05551275463989 x_h1_c7 * y_h1_0 ] <= 20
 qc19: [ 36.05551275463989 x_h1_c7 * y_h1_1 ] <= 20
 qc20: [ 36.05551275463989 x_h1_c7 * y_h1_2 ] <= 30
 qc21: [ 71.58910531638176 x_h1_c8 * y_h1_0 ] <= 20
 qc22: [ 71.58910531638176 x_h1_c8 * y_h1_1 ] <= 20
 qc23: [ 71.58910531638176 x_h1_c8 * y_h1_2 ] <= 30
 qc24: [ 22.3606797749979 x_h1_c9 * y_h1_0 ] <= 20
 qc25: [ 22.3606797749979 x_h1_c9 * y_h1_1 ] <= 20
 qc26: [ 22.3606797749979 x_h1_c9 * y_h1_2 ] <= 30
 qc27: [ 14.14213562373095 x_h1_c10 * y_h1_0 ] <= 20
 qc28: [ 14.14213562373095 x_h1_c10 * y_h1_1 ] <= 20
 qc29: [ 14.14213562373095 x_h1_c10 * y_h1_2 ] <= 30
 qc30: [ 11.18033988749895 x_h1_c11 * y_h1_0 ] <= 20
 qc31: [ 11.18033988749895 x_h1_c11 * y_h1_1 ] <= 20
 qc32: [ 11.18033988749895 x_h1_c11 * y_h1_2 ] <= 30
 qc33: [ 11.18033988749895 x_h2_c1 * y_h2_0 ] <= 20
 qc34: [ 11.18033988749895 x_h2_c1 * y_h2_1 ] <= 20
 qc35: [ 11.18033988749895 x_h2_c1 * y_h2_2 ] <= 30
 qc36: [ 15.8113883008419 x_h2_c2 * y_h2_0 ] <= 20
 qc37: [ 15.8113883008419 x_h2_c2 * y_h2_1 ] <= 20
 qc38: [ 15.8113883008419 x_h2_c2 * y_h2_2 ] <= 30
 qc39: [ 18.02775637731995 x_h2_c3 * y_h2_0 ] <= 20
 qc40: [ 18.02775637731995 x_h2_c3 * y_h2_1 ] <= 20
 qc41: [ 18.02775637731995 x_h2_c3 * y_h2_2 ] <= 30
 qc42: [ 50 x_h2_c4 * y_h2_0 ] <= 20
 qc43: [ 50 x_h2_c4 * y_h2_1 ] <= 20
 qc44: [ 50 x_h2_c4 * y_h2_2 ] <= 30
 qc45: [ 15.8113883008419 x_h2_c5 * y_h2_0 ] <= 20
 qc46: [ 15.8113883008419 x_h2_c5 * y_h2_1 ] <= 20
 qc47: [ 15.8113883008419 x_h2_c5 * y_h2_2 ] <= 30
 qc48: [ 31.62277660168379 x_h2_c6 * y_h2_0 ] <= 20
 qc49: [ 31.62277660168379 x_h2_c6 * y_h2_1 ] <= 20
 qc50: [ 31.62277660168379 x_h2_c6 * y_h2_2 ] <= 30
 qc51: [ 28.2842712474619 x_h2_c7 * y_h2_0 ] <= 20
 qc52: [ 28.2842712474619 x_h2_c7 * y_h2_1 ] <= 20
 qc53: [ 28.2842712474619 x_h2_c7 * y_h2_2 ] <= 30
 qc54: [ 62.64982043070834 x_h2_c8 * y_h2_0 ] <= 20
 qc55: [ 62.64982043070834 x_h2_c8 * y_h2_1 ] <= 20
 qc56: [ 62.64982043070834 x_h2_c8 * y_h2_2 ] <= 30
 qc57: [ 14.14213562373095 x_h2_c9 * y_h2_0 ] <= 20
 qc58: [ 14.14213562373095 x_h2_c9 * y_h2_1 ] <= 20
 qc59: [ 14.14213562373095 x_h2_c9 * y_h2_2 ] <= 30
 qc60: [ 10 x_h2_c10 * y_h2_0 ] <= 20
 qc61: [ 10 x_h2_c10 * y_h2_1 ] <= 20
 qc62: [ 10 x_h2_c10 * y_h2_2 ] <= 30
 qc63: [ 5 x_h2_c11 * y_h2_0 ] <= 20
 qc64: [ 5 x_h2_c11 * y_h2_1 ] <= 20
 qc65: [ 5 x_h2_c11 * y_h2_2 ] <= 30
 qc66: [ 40.31128874149275 x_h3_c1 * y_h3_0 ] <= 20
 qc67: [ 40.31128874149275 x_h3_c1 * y_h3_1 ] <= 20
 qc68: [ 40.31128874149275 x_h3_c1 * y_h3_2 ] <= 30
 qc69: [ 43.01162633521314 x_h3_c2 * y_h3_0 ] <= 20
 qc70: [ 43.01162633521314 x_h3_c2 * y_h3_1 ] <= 20
 qc71: [ 43.01162633521314 x_h3_c2 * y_h3_2 ] <= 30
 qc72: [ 15 x_h3_c3 * y_h3_0 ] <= 20
 qc73: [ 15 x_h3_c3 * y_h3_1 ] <= 20
 qc74: [ 15 x_h3_c3 * y_h3_2 ] <= 30
 qc75: [ 41.23105625617661 x_h3_c4 * y_h3_0 ] <= 20
 qc76: [ 41.23105625617661 x_h3_c4 * y_h3_1 ] <= 20
 qc77: [ 41.23105625617661 x_h3_c4 * y_h3_2 ] <= 30
 qc78: [ 15.8113883008419 x_h3_c5 * y_h3_0 ] <= 20
 qc79: [ 15.8113883008419 x_h3_c5 * y_h3_1 ] <= 20
 qc80: [ 15.8113883008419 x_h3_c5 * y_h3_2 ] <= 30
 qc81: [ 44.7213595499958 x_h3_c6 * y_h3_0 ] <= 20
 qc82: [ 44.7213595499958 x_h3_c6 * y_h3_1 ] <= 20
 qc83: [ 44.7213595499958 x_h3_c6 * y_h3_2 ] <= 30
 qc84: [ 31.62277660168379 x_h3_c7 * y_h3_0 ] <= 20
 qc85: [ 31.62277660168379 x_h3_c7 * y_h3_1 ] <= 20
 qc86: [ 31.62277660168379 x_h3_c7 * y_h3_2 ] <= 30
 qc87: [ 65 x_h3_c8 * y_h3_0 ] <= 20
 qc88: [ 65 x_h3_c8 * y_h3_1 ] <= 20
 qc89: [ 65 x_h3_c8 * y_h3_2 ] <= 30
 qc90: [ 28.2842712474619 x_h3_c9 * y_h3_0 ] <= 20
 qc91: [ 28.2842712474619 x_h3_c9 * y_h3_1 ] <= 20
 qc92: [ 28.2842712474619 x_h3_c9 * y_h3_2 ] <= 30
 qc93: [ 41.23105625617661 x_h3_c10 * y_h3_0 ] <= 20
 qc94: [ 41.23105625617661 x_h3_c10 * y_h3_1 ] <= 20
 qc95: [ 41.23105625617661 x_h3_c10 * y_h3_2 ] <= 30
 qc96: [ 26.92582403567252 x_h3_c11 * y_h3_0 ] <= 20
 qc97: [ 26.92582403567252 x_h3_c11 * y_h3_1 ] <= 20
 qc98: [ 26.92582403567252 x_h3_c11 * y_h3_2 ] <= 30
 qc99: [ 20.6155281280883 x_h4_c1 * y_h4_0 ] <= 20
 qc100: [ 20.6155281280883 x_h4_c1 * y_h4_1 ] <= 20
 qc101: [ 20.6155281280883 x_h4_c1 * y_h4_2 ] <= 30
 qc102: [ 15.8113883008419 x_h4_c2 * y_h4_0 ] <= 20
 qc103: [ 15.8113883008419 x_h4_c2 * y_h4_1 ] <= 20
 qc104: [ 15.8113883008419 x_h4_c2 * y_h4_2 ] <= 30
 qc105: [ 42.72001872658765 x_h4_c3 * y_h4_0 ] <= 20
 qc106: [ 42.72001872658765 x_h4_c3 * y_h4_1 ] <= 20
 qc107: [ 42.72001872658765 x_h4_c3 * y_h4_2 ] <= 30
 qc108: [ 40 x_h4_c4 * y_h4_0 ] <= 20
 qc109: [ 40 x_h4_c4 * y_h4_1 ] <= 20
 qc110: [ 40 x_h4_c4 * y_h4_2 ] <= 30
 qc111: [ 38.07886552931954 x_h4_c5 * y_h4_0 ] <= 20
 qc112: [ 38.07886552931954 x_h4_c5 * y_h4_1 ] <= 20
 qc113: [ 38.07886552931954 x_h4_c5 * y_h4_2 ] <= 30
 qc114: [ 10 x_h4_c6 * y_h4_0 ] <= 20
 qc115: [ 10 x_h4_c6 * y_h4_1 ] <= 20
 qc116: [ 10 x_h4_c6 * y_h4_2 ] <= 30
 qc117: [ 22.3606797749979 x_h4_c7 * y_h4_0 ] <= 20
 qc118: [ 22.3606797749979 x_h4_c7 * y_h4_1 ] <= 20
 qc119: [ 22.3606797749979 x_h4_c7 * y_h4_2 ] <= 30
 qc120: [ 39.05124837953327 x_h4_c8 * y_h4_0 ] <= 20
 qc121: [ 39.05124837953327 x_h4_c8 * y_h4_1 ] <= 20
 qc122: [ 39.05124837953327 x_h4_c8 * y_h4_2 ] <= 30
 qc123: [ 22.3606797749979 x_h4_c9 * y_h4_0 ] <= 20
 qc124: [ 22.3606797749979 x_h4_c9 * y_h4_1 ] <= 20
 qc125: [ 22.3606797749979 x_h4_c9 * y_h4_2 ] <= 30
 qc126: [ 31.62277660168379 x_h4_c10 * y_h4_0 ] <= 20
 qc127: [ 31.62277660168379 x_h4_c10 * y_h4_1 ] <= 20
 qc128: [ 31.62277660168379 x_h4_c10 * y_h4_2 ] <= 30
 qc129: [ 30.4138126514911 x_h4_c11 * y_h4_0 ] <= 20
 qc130: [ 30.4138126514911 x_h4_c11 * y_h4_1 ] <= 20
 qc131: [ 30.4138126514911 x_h4_c11 * y_h4_2 ] <= 30
 qc132: [ 15 x_h5_c1 * y_h5_0 ] <= 20
 qc133: [ 15 x_h5_c1 * y_h5_1 ] <= 20
 qc134: [ 15 x_h5_c1 * y_h5_2 ] <= 30
 qc135: [ 15.8113883008419 x_h5_c2 * y_h5_0 ] <= 20
 qc136: [ 15.8113883008419 x_h5_c2 * y_h5_1 ] <= 20
 qc137: [ 15.8113883008419 x_h5_c2 * y_h5_2 ] <= 30
 qc138: [ 20.6155281280883 x_h5_c3 * y_h5_0 ] <= 20
 qc139: [ 20.6155281280883 x_h5_c3 * y_h5_1 ] <= 20
 qc140: [ 20.6155281280883 x_h5_c3 * y_h5_2 ] <= 30
 qc141: [ 36.05551275463989 x_h5_c4 * y_h5_0 ] <= 20
 qc142: [ 36.05551275463989 x_h5_c4 * y_h5_1 ] <= 20
 qc143: [ 36.05551275463989 x_h5_c4 * y_h5_2 ] <= 30
 qc144: [ 15.8113883008419 x_h5_c5 * y_h5_0 ] <= 20
 qc145: [ 15.8113883008419 x_h5_c5 * y_h5_1 ] <= 20
 qc146: [ 15.8113883008419 x_h5_c5 * y_h5_2 ] <= 30
 qc147: [ 20 x_h5_c6 * y_h5_0 ] <= 20
 qc148: [ 20 x_h5_c6 * y_h5_1 ] <= 20
 qc149: [ 20 x_h5_c6 * y_h5_2 ] <= 30
 qc150: [ 14.14213562373095 x_h5_c7 * y_h5_0 ] <= 20
 qc151: [ 14.14213562373095 x_h5_c7 * y_h5_1 ] <= 20
 qc152: [ 14.14213562373095 x_h5_c7 * y_h5_2 ] <= 30
 qc153: [ 49.24428900898052 x_h5_c8 * y_h5_0 ] <= 20
 qc154: [ 49.24428900898052 x_h5_c8 * y_h5_1 ] <= 20
 qc155: [ 49.24428900898052 x_h5_c8 * y_h5_2 ] <= 30
 qc156: [ ] <= 20
 qc157: [ ] <= 20
 qc158: [ ] <= 30
 qc159: [ 22.3606797749979 x_h5_c10 * y_h5_0 ] <= 20
 qc160: [ 22.3606797749979 x_h5_c10 * y_h5_1 ] <= 20
 qc161: [ 22.3606797749979 x_h5_c10 * y_h5_2 ] <= 30
 qc162: [ 11.18033988749895 x_h5_c11 * y_h5_0 ] <= 20
 qc163: [ 11.18033988749895 x_h5_c11 * y_h5_1 ] <= 20
 qc164: [ 11.18033988749895 x_h5_c11 * y_h5_2 ] <= 30
 qc165: [ 40.31128874149275 x_h6_c1 * y_h6_0 ] <= 20
 qc166: [ 40.31128874149275 x_h6_c1 * y_h6_1 ] <= 20
 qc167: [ 40.31128874149275 x_h6_c1 * y_h6_2 ] <= 30
 qc168: [ 38.07886552931954 x_h6_c2 * y_h6_0 ] <= 20
 qc169: [ 38.07886552931954 x_h6_c2 * y_h6_1 ] <= 20
 qc170: [ 38.07886552931954 x_h6_c2 * y_h6_2 ] <= 30
 qc171: [ 42.72001872658765 x_h6_c3 * y_h6_0 ] <= 20
 qc172: [ 42.72001872658765 x_h6_c3 * y_h6_1 ] <= 20
 qc173: [ 42.72001872658765 x_h6_c3 * y_h6_2 ] <= 30
 qc174: [ 10 x_h6_c4 * y_h6_0 ] <= 20
 qc175: [ 10 x_h6_c4 * y_h6_1 ] <= 20
 qc176: [ 10 x_h6_c4 * y_h6_2 ] <= 30
 qc177: [ 38.07886552931954 x_h6_c5 * y_h6_0 ] <= 20
 qc178: [ 38.07886552931954 x_h6_c5 * y_h6_1 ] <= 20
 qc179: [ 38.07886552931954 x_h6_c5 * y_h6_2 ] <= 30
 qc180: [ 20 x_h6_c6 * y_h6_0 ] <= 20
 qc181: [ 20 x_h6_c6 * y_h6_1 ] <= 20
 qc182: [ 20 x_h6_c6 * y_h6_2 ] <= 30
 qc183: [ 14.14213562373095 x_h6_c7 * y_h6_0 ] <= 20
 qc184: [ 14.14213562373095 x_h6_c7 * y_h6_1 ] <= 20
 qc185: [ 14.14213562373095 x_h6_c7 * y_h6_2 ] <= 30
 qc186: [ 25 x_h6_c8 * y_h6_0 ] <= 20
 qc187: [ 25 x_h6_c8 * y_h6_1 ] <= 20
 qc188: [ 25 x_h6_c8 * y_h6_2 ] <= 30
 qc189: [ 28.2842712474619 x_h6_c9 * y_h6_0 ] <= 20
 qc190: [ 28.2842712474619 x_h6_c9 * y_h6_1 ] <= 20
 qc191: [ 28.2842712474619 x_h6_c9 * y_h6_2 ] <= 30
 qc192: [ 50 x_h6_c10 * y_h6_0 ] <= 20
 qc193: [ 50 x_h6_c10 * y_h6_1 ] <= 20
 qc194: [ 50 x_h6_c10 * y_h6_2 ] <= 30
 qc195: [ 39.05124837953327 x_h6_c11 * y_h6_0 ] <= 20
 qc196: [ 39.05124837953327 x_h6_c11 * y_h6_1 ] <= 20
 qc197: [ 39.05124837953327 x_h6_c11 * y_h6_2 ] <= 30
 qc198: [ 50 x_h7_c1 * y_h7_0 ] <= 20
 qc199: [ 50 x_h7_c1 * y_h7_1 ] <= 20
 qc200: [ 50 x_h7_c1 * y_h7_2 ] <= 30
 qc201: [ 47.16990566028302 x_h7_c2 * y_h7_0 ] <= 20
 qc202: [ 47.16990566028302 x_h7_c2 * y_h7_1 ] <= 20
 qc203: [ 47.16990566028302 x_h7_c2 * y_h7_2 ] <= 30
 qc204: [ 53.85164807134504 x_h7_c3 * y_h7_0 ] <= 20
 qc205: [ 53.85164807134504 x_h7_c3 * y_h7_1 ] <= 20
 qc206: [ 53.85164807134504 x_h7_c3 * y_h7_2 ] <= 30
 qc207: [ 11.18033988749895 x_h7_c4 * y_h7_0 ] <= 20
 qc208: [ 11.18033988749895 x_h7_c4 * y_h7_1 ] <= 20
 qc209: [ 11.18033988749895 x_h7_c4 * y_h7_2 ] <= 30
 qc210: [ 49.24428900898052 x_h7_c5 * y_h7_0 ] <= 20
 qc211: [ 49.24428900898052 x_h7_c5 * y_h7_1 ] <= 20
 qc212: [ 49.24428900898052 x_h7_c5 * y_h7_2 ] <= 30
 qc213: [ 26.92582403567252 x_h7_c6 * y_h7_0 ] <= 20
 qc214: [ 26.92582403567252 x_h7_c6 * y_h7_1 ] <= 20
 qc215: [ 26.92582403567252 x_h7_c6 * y_h7_2 ] <= 30
 qc216: [ 25 x_h7_c7 * y_h7_0 ] <= 20
 qc217: [ 25 x_h7_c7 * y_h7_1 ] <= 20
 qc218: [ 25 x_h7_c7 * y_h7_2 ] <= 30
 qc219: [ 15.8113883008419 x_h7_c8 * y_h7_0 ] <= 20
 qc220: [ 15.8113883008419 x_h7_c8 * y_h7_1 ] <= 20
 qc221: [ 15.8113883008419 x_h7_c8 * y_h7_2 ] <= 30
 qc222: [ 39.05124837953327 x_h7_c9 * y_h7_0 ] <= 20
 qc223: [ 39.05124837953327 x_h7_c9 * y_h7_1 ] <= 20
 qc224: [ 39.05124837953327 x_h7_c9 * y_h7_2 ] <= 30
 qc225: [ 60.20797289396148 x_h7_c10 * y_h7_0 ] <= 20
 qc226: [ 60.20797289396148 x_h7_c10 * y_h7_1 ] <= 20
 qc227: [ 60.20797289396148 x_h7_c10 * y_h7_2 ] <= 30
 qc228: [ 50 x_h7_c11 * y_h7_0 ] <= 20
 qc229: [ 50 x_h7_c11 * y_h7_1 ] <= 20
 qc230: [ 50 x_h7_c11 * y_h7_2 ] <= 30
 qc231: [ x_h1_c1 * y_h1_1 + x_h1_c1 * y_h1_2 + x_h2_c1 * y_h2_1
   + x_h2_c1 * y_h2_2 + x_h3_c1 * y_h3_1 + x_h3_c1 * y_h3_2
   + x_h4_c1 * y_h4_1 + x_h4_c1 * y_h4_2 + x_h5_c1 * y_h5_1
   + x_h5_c1 * y_h5_2 + x_h6_c1 * y_h6_1 + x_h6_c1 * y_h6_2
   + x_h7_c1 * y_h7_1 + x_h7_c1 * y_h7_2 ] = 1
 qc232: [ x_h1_c3 * y_h1_1 + x_h1_c3 * y_h1_2 + x_h2_c3 * y_h2_1
   + x_h2_c3 * y_h2_2 + x_h3_c3 * y_h3_1 + x_h3_c3 * y_h3_2
   + x_h4_c3 * y_h4_1 + x_h4_c3 * y_h4_2 + x_h5_c3 * y_h5_1
   + x_h5_c3 * y_h5_2 + x_h6_c3 * y_h6_1 + x_h6_c3 * y_h6_2
   + x_h7_c3 * y_h7_1 + x_h7_c3 * y_h7_2 ] = 1
 qc233: [ x_h1_c6 * y_h1_1 + x_h1_c6 * y_h1_2 + x_h2_c6 * y_h2_1
   + x_h2_c6 * y_h2_2 + x_h3_c6 * y_h3_1 + x_h3_c6 * y_h3_2
   + x_h4_c6 * y_h4_1 + x_h4_c6 * y_h4_2 + x_h5_c6 * y_h5_1
   + x_h5_c6 * y_h5_2 + x_h6_c6 * y_h6_1 + x_h6_c6 * y_h6_2
   + x_h7_c6 * y_h7_1 + x_h7_c6 * y_h7_2 ] = 1
 qc234: [ x_h1_c8 * y_h1_1 + x_h1_c8 * y_h1_2 + x_h2_c8 * y_h2_1
   + x_h2_c8 * y_h2_2 + x_h3_c8 * y_h3_1 + x_h3_c8 * y_h3_2
   + x_h4_c8 * y_h4_1 + x_h4_c8 * y_h4_2 + x_h5_c8 * y_h5_1
   + x_h5_c8 * y_h5_2 + x_h6_c8 * y_h6_1 + x_h6_c8 * y_h6_2
   + x_h7_c8 * y_h7_1 + x_h7_c8 * y_h7_2 ] = 1
 qc235: [ x_h1_c1 * y_h1_0 + x_h1_c2 * y_h1_0 + x_h1_c3 * y_h1_0
   + x_h1_c4 * y_h1_0 + x_h1_c5 * y_h1_0 + x_h1_c6 * y_h1_0
   + x_h1_c7 * y_h1_0 + x_h1_c8 * y_h1_0 + x_h1_c9 * y_h1_0
   + x_h1_c10 * y_h1_0 + x_h1_c11 * y_h1_0 ] <= 3
 qc236: [ x_h1_c1 * y_h1_1 + x_h1_c2 * y_h1_1 + x_h1_c3 * y_h1_1
   + x_h1_c4 * y_h1_1 + x_h1_c5 * y_h1_1 + x_h1_c6 * y_h1_1
   + x_h1_c7 * y_h1_1 + x_h1_c8 * y_h1_1 + x_h1_c9 * y_h1_1
   + x_h1_c10 * y_h1_1 + x_h1_c11 * y_h1_1 ] <= 3
 qc237: [ x_h1_c1 * y_h1_2 + x_h1_c2 * y_h1_2 + x_h1_c3 * y_h1_2
   + x_h1_c4 * y_h1_2 + x_h1_c5 * y_h1_2 + x_h1_c6 * y_h1_2
   + x_h1_c7 * y_h1_2 + x_h1_c8 * y_h1_2 + x_h1_c9 * y_h1_2
   + x_h1_c10 * y_h1_2 + x_h1_c11 * y_h1_2 ] <= 8
 qc238: [ x_h2_c1 * y_h2_0 + x_h2_c2 * y_h2_0 + x_h2_c3 * y_h2_0
   + x_h2_c4 * y_h2_0 + x_h2_c5 * y_h2_0 + x_h2_c6 * y_h2_0
   + x_h2_c7 * y_h2_0 + x_h2_c8 * y_h2_0 + x_h2_c9 * y_h2_0
   + x_h2_c10 * y_h2_0 + x_h2_c11 * y_h2_0 ] <= 3
 qc239: [ x_h2_c1 * y_h2_1 + x_h2_c2 * y_h2_1 + x_h2_c3 * y_h2_1
   + x_h2_c4 * y_h2_1 + x_h2_c5 * y_h2_1 + x_h2_c6 * y_h2_1
   + x_h2_c7 * y_h2_1 + x_h2_c8 * y_h2_1 + x_h2_c9 * y_h2_1
   + x_h2_c10 * y_h2_1 + x_h2_c11 * y_h2_1 ] <= 3
 qc240: [ x_h2_c1 * y_h2_2 + x_h2_c2 * y_h2_2 + x_h2_c3 * y_h2_2
   + x_h2_c4 * y_h2_2 + x_h2_c5 * y_h2_2 + x_h2_c6 * y_h2_2
   + x_h2_c7 * y_h2_2 + x_h2_c8 * y_h2_2 + x_h2_c9 * y_h2_2
   + x_h2_c10 * y_h2_2 + x_h2_c11 * y_h2_2 ] <= 5
 qc241: [ x_h3_c1 * y_h3_0 + x_h3_c2 * y_h3_0 + x_h3_c3 * y_h3_0
   + x_h3_c4 * y_h3_0 + x_h3_c5 * y_h3_0 + x_h3_c6 * y_h3_0
   + x_h3_c7 * y_h3_0 + x_h3_c8 * y_h3_0 + x_h3_c9 * y_h3_0
   + x_h3_c10 * y_h3_0 + x_h3_c11 * y_h3_0 ] <= 3
 qc242: [ x_h3_c1 * y_h3_1 + x_h3_c2 * y_h3_1 + x_h3_c3 * y_h3_1
   + x_h3_c4 * y_h3_1 + x_h3_c5 * y_h3_1 + x_h3_c6 * y_h3_1
   + x_h3_c7 * y_h3_1 + x_h3_c8 * y_h3_1 + x_h3_c9 * y_h3_1
   + x_h3_c10 * y_h3_1 + x_h3_c11 * y_h3_1 ] <= 3
 qc243: [ x_h3_c1 * y_h3_2 + x_h3_c2 * y_h3_2 + x_h3_c3 * y_h3_2
   + x_h3_c4 * y_h3_2 + x_h3_c5 * y_h3_2 + x_h3_c6 * y_h3_2
   + x_h3_c7 * y_h3_2 + x_h3_c8 * y_h3_2 + x_h3_c9 * y_h3_2
   + x_h3_c10 * y_h3_2 + x_h3_c11 * y_h3_2 ] <= 5
 qc244: [ x_h4_c1 * y_h4_0 + x_h4_c2 * y_h4_0 + x_h4_c3 * y_h4_0
   + x_h4_c4 * y_h4_0 + x_h4_c5 * y_h4_0 + x_h4_c6 * y_h4_0
   + x_h4_c7 * y_h4_0 + x_h4_c8 * y_h4_0 + x_h4_c9 * y_h4_0
   + x_h4_c10 * y_h4_0 + x_h4_c11 * y_h4_0 ] <= 3
 qc245: [ x_h4_c1 * y_h4_1 + x_h4_c2 * y_h4_1 + x_h4_c3 * y_h4_1
   + x_h4_c4 * y_h4_1 + x_h4_c5 * y_h4_1 + x_h4_c6 * y_h4_1
   + x_h4_c7 * y_h4_1 + x_h4_c8 * y_h4_1 + x_h4_c9 * y_h4_1
   + x_h4_c10 * y_h4_1 + x_h4_c11 * y_h4_1 ] <= 4
 qc246: [ x_h4_c1 * y_h4_2 + x_h4_c2 * y_h4_2 + x_h4_c3 * y_h4_2
   + x_h4_c4 * y_h4_2 + x_h4_c5 * y_h4_2 + x_h4_c6 * y_h4_2
   + x_h4_c7 * y_h4_2 + x_h4_c8 * y_h4_2 + x_h4_c9 * y_h4_2
   + x_h4_c10 * y_h4_2 + x_h4_c11 * y_h4_2 ] <= 5
 qc247: [ x_h5_c1 * y_h5_0 + x_h5_c2 * y_h5_0 + x_h5_c3 * y_h5_0
   + x_h5_c4 * y_h5_0 + x_h5_c5 * y_h5_0 + x_h5_c6 * y_h5_0
   + x_h5_c7 * y_h5_0 + x_h5_c8 * y_h5_0 + x_h5_c9 * y_h5_0
   + x_h5_c10 * y_h5_0 + x_h5_c11 * y_h5_0 ] <= 3
 qc248: [ x_h5_c1 * y_h5_1 + x_h5_c2 * y_h5_1 + x_h5_c3 * y_h5_1
   + x_h5_c4 * y_h5_1 + x_h5_c5 * y_h5_1 + x_h5_c6 * y_h5_1
   + x_h5_c7 * y_h5_1 + x_h5_c8 * y_h5_1 + x_h5_c9 * y_h5_1
   + x_h5_c10 * y_h5_1 + x_h5_c11 * y_h5_1 ] <= 4
 qc249: [ x_h5_c1 * y_h5_2 + x_h5_c2 * y_h5_2 + x_h5_c3 * y_h5_2
   + x_h5_c4 * y_h5_2 + x_h5_c5 * y_h5_2 + x_h5_c6 * y_h5_2
   + x_h5_c7 * y_h5_2 + x_h5_c8 * y_h5_2 + x_h5_c9 * y_h5_2
   + x_h5_c10 * y_h5_2 + x_h5_c11 * y_h5_2 ] <= 5
 qc250: [ x_h6_c1 * y_h6_0 + x_h6_c2 * y_h6_0 + x_h6_c3 * y_h6_0
   + x_h6_c4 * y_h6_0 + x_h6_c5 * y_h6_0 + x_h6_c6 * y_h6_0
   + x_h6_c7 * y_h6_0 + x_h6_c8 * y_h6_0 + x_h6_c9 * y_h6_0
   + x_h6_c10 * y_h6_0 + x_h6_c11 * y_h6_0 ] <= 1
 qc251: [ x_h6_c1 * y_h6_1 + x_h6_c2 * y_h6_1 + x_h6_c3 * y_h6_1
   + x_h6_c4 * y_h6_1 + x_h6_c5 * y_h6_1 + x_h6_c6 * y_h6_1
   + x_h6_c7 * y_h6_1 + x_h6_c8 * y_h6_1 + x_h6_c9 * y_h6_1
   + x_h6_c10 * y_h6_1 + x_h6_c11 * y_h6_1 ] <= 2
 qc252: [ x_h6_c1 * y_h6_2 + x_h6_c2 * y_h6_2 + x_h6_c3 * y_h6_2
   + x_h6_c4 * y_h6_2 + x_h6_c5 * y_h6_2 + x_h6_c6 * y_h6_2
   + x_h6_c7 * y_h6_2 + x_h6_c8 * y_h6_2 + x_h6_c9 * y_h6_2
   + x_h6_c10 * y_h6_2 + x_h6_c11 * y_h6_2 ] <= 4
 qc253: [ x_h7_c1 * y_h7_0 + x_h7_c2 * y_h7_0 + x_h7_c3 * y_h7_0
   + x_h7_c4 * y_h7_0 + x_h7_c5 * y_h7_0 + x_h7_c6 * y_h7_0
   + x_h7_c7 * y_h7_0 + x_h7_c8 * y_h7_0 + x_h7_c9 * y_h7_0
   + x_h7_c10 * y_h7_0 + x_h7_c11 * y_h7_0 ] <= 1
 qc254: [ x_h7_c1 * y_h7_1 + x_h7_c2 * y_h7_1 + x_h7_c3 * y_h7_1
   + x_h7_c4 * y_h7_1 + x_h7_c5 * y_h7_1 + x_h7_c6 * y_h7_1
   + x_h7_c7 * y_h7_1 + x_h7_c8 * y_h7_1 + x_h7_c9 * y_h7_1
   + x_h7_c10 * y_h7_1 + x_h7_c11 * y_h7_1 ] <= 2
 qc255: [ x_h7_c1 * y_h7_2 + x_h7_c2 * y_h7_2 + x_h7_c3 * y_h7_2
   + x_h7_c4 * y_h7_2 + x_h7_c5 * y_h7_2 + x_h7_c6 * y_h7_2
   + x_h7_c7 * y_h7_2 + x_h7_c8 * y_h7_2 + x_h7_c9 * y_h7_2
   + x_h7_c10 * y_h7_2 + x_h7_c11 * y_h7_2 ] <= 2
Bounds
 Constant = 1
Binaries
 x_h1_c1 x_h1_c2 x_h1_c3 x_h1_c4 x_h1_c5 x_h1_c6 x_h1_c7 x_h1_c8 x_h1_c9
 x_h1_c10 x_h1_c11 x_h2_c1 x_h2_c2 x_h2_c3 x_h2_c4 x_h2_c5 x_h2_c6 x_h2_c7
 x_h2_c8 x_h2_c9 x_h2_c10 x_h2_c11 x_h3_c1 x_h3_c2 x_h3_c3 x_h3_c4 x_h3_c5
 x_h3_c6 x_h3_c7 x_h3_c8 x_h3_c9 x_h3_c10 x_h3_c11 x_h4_c1 x_h4_c2 x_h4_c3
 x_h4_c4 x_h4_c5 x_h4_c6 x_h4_c7 x_h4_c8 x_h4_c9 x_h4_c10 x_h4_c11 x_h5_c1
 x_h5_c2 x_h5_c3 x_h5_c4 x_h5_c5 x_h5_c6 x_h5_c7 x_h5_c8 x_h5_c9 x_h5_c10
 x_h5_c11 x_h6_c1 x_h6_c2 x_h6_c3 x_h6_c4 x_h6_c5 x_h6_c6 x_h6_c7 x_h6_c8
 x_h6_c9 x_h6_c10 x_h6_c11 x_h7_c1 x_h7_c2 x_h7_c3 x_h7_c4 x_h7_c5 x_h7_c6
 x_h7_c7 x_h7_c8 x_h7_c9 x_h7_c10 x_h7_c11 y_h1_0 y_h1_1 y_h1_2 y_h2_0
 y_h2_1 y_h2_2 y_h3_0 y_h3_1 y_h3_2 y_h4_0 y_h4_1 y_h4_2 y_h5_0 y_h5_1
 y_h5_2 y_h6_0 y_h6_1 y_h6_2 y_h7_0 y_h7_1 y_h7_2
End
